(set-info :category "industrial")
(set-info :status sat)
(declare-fun x00 () (_ BitVec 8))
(declare-fun x02 () (_ BitVec 8))
(declare-fun x05 () (_ BitVec 8))
(declare-fun x06 () (_ BitVec 8))
(declare-fun x07 () (_ BitVec 8))
(declare-fun x10 () (_ BitVec 8))
(declare-fun x13 () (_ BitVec 8))
(declare-fun x15 () (_ BitVec 8))
(declare-fun x16 () (_ BitVec 8))
(declare-fun x18 () (_ BitVec 8))
(declare-fun x21 () (_ BitVec 8))
(declare-fun x23 () (_ BitVec 8))
(declare-fun x25 () (_ BitVec 8))
(declare-fun x27 () (_ BitVec 8))
(declare-fun x31 () (_ BitVec 8))
(declare-fun x34 () (_ BitVec 8))
(declare-fun x35 () (_ BitVec 8))
(declare-fun x36 () (_ BitVec 8))
(declare-fun x37 () (_ BitVec 8))
(declare-fun x40 () (_ BitVec 8))
(declare-fun x42 () (_ BitVec 8))
(declare-fun x43 () (_ BitVec 8))
(declare-fun x44 () (_ BitVec 8))
(declare-fun x45 () (_ BitVec 8))
(declare-fun x47 () (_ BitVec 8))
(declare-fun x48 () (_ BitVec 8))
(declare-fun x51 () (_ BitVec 8))
(declare-fun x52 () (_ BitVec 8))
(declare-fun x57 () (_ BitVec 8))
(declare-fun x58 () (_ BitVec 8))
(declare-fun x61 () (_ BitVec 8))
(declare-fun x63 () (_ BitVec 8))
(declare-fun x64 () (_ BitVec 8))
(declare-fun x65 () (_ BitVec 8))
(declare-fun x68 () (_ BitVec 8))
(declare-fun x70 () (_ BitVec 8))
(declare-fun x71 () (_ BitVec 8))
(declare-fun x72 () (_ BitVec 8))
(declare-fun x75 () (_ BitVec 8))
(declare-fun x76 () (_ BitVec 8))
(declare-fun x78 () (_ BitVec 8))
(declare-fun x80 () (_ BitVec 8))
(declare-fun x81 () (_ BitVec 8))
(declare-fun x82 () (_ BitVec 8))
(declare-fun x86 () (_ BitVec 8))
(declare-fun x87 () (_ BitVec 8))
(assert (bvult x00 (_ bv9 8)))
(assert (bvult x02 (_ bv9 8)))
(assert (bvult x05 (_ bv9 8)))
(assert (bvult x06 (_ bv9 8)))
(assert (bvult x07 (_ bv9 8)))
(assert (bvult x10 (_ bv9 8)))
(assert (bvult x13 (_ bv9 8)))
(assert (bvult x15 (_ bv9 8)))
(assert (bvult x16 (_ bv9 8)))
(assert (bvult x18 (_ bv9 8)))
(assert (bvult x21 (_ bv9 8)))
(assert (bvult x23 (_ bv9 8)))
(assert (bvult x25 (_ bv9 8)))
(assert (bvult x27 (_ bv9 8)))
(assert (bvult x31 (_ bv9 8)))
(assert (bvult x34 (_ bv9 8)))
(assert (bvult x35 (_ bv9 8)))
(assert (bvult x36 (_ bv9 8)))
(assert (bvult x37 (_ bv9 8)))
(assert (bvult x40 (_ bv9 8)))
(assert (bvult x42 (_ bv9 8)))
(assert (bvult x43 (_ bv9 8)))
(assert (bvult x44 (_ bv9 8)))
(assert (bvult x45 (_ bv9 8)))
(assert (bvult x47 (_ bv9 8)))
(assert (bvult x48 (_ bv9 8)))
(assert (bvult x51 (_ bv9 8)))
(assert (bvult x52 (_ bv9 8)))
(assert (bvult x57 (_ bv9 8)))
(assert (bvult x58 (_ bv9 8)))
(assert (bvult x61 (_ bv9 8)))
(assert (bvult x63 (_ bv9 8)))
(assert (bvult x64 (_ bv9 8)))
(assert (bvult x65 (_ bv9 8)))
(assert (bvult x68 (_ bv9 8)))
(assert (bvult x70 (_ bv9 8)))
(assert (bvult x71 (_ bv9 8)))
(assert (bvult x72 (_ bv9 8)))
(assert (bvult x75 (_ bv9 8)))
(assert (bvult x76 (_ bv9 8)))
(assert (bvult x78 (_ bv9 8)))
(assert (bvult x80 (_ bv9 8)))
(assert (bvult x81 (_ bv9 8)))
(assert (bvult x82 (_ bv9 8)))
(assert (bvult x86 (_ bv9 8)))
(assert (bvult x87 (_ bv9 8)))
(assert (not (= x00 (_ bv5 8))))
(assert (not (= x00 x02)))
(assert (not (= x00 (_ bv1 8))))
(assert (not (= x00 (_ bv2 8))))
(assert (not (= x00 x05)))
(assert (not (= x00 x06)))
(assert (not (= x00 x07)))
(assert (not (= x00 (_ bv3 8))))
(assert (not (= (_ bv5 8) x02)))
(assert (not (= (_ bv5 8) (_ bv1 8))))
(assert (not (= (_ bv5 8) (_ bv2 8))))
(assert (not (= (_ bv5 8) x05)))
(assert (not (= (_ bv5 8) x06)))
(assert (not (= (_ bv5 8) x07)))
(assert (not (= (_ bv5 8) (_ bv3 8))))
(assert (not (= x02 (_ bv1 8))))
(assert (not (= x02 (_ bv2 8))))
(assert (not (= x02 x05)))
(assert (not (= x02 x06)))
(assert (not (= x02 x07)))
(assert (not (= x02 (_ bv3 8))))
(assert (not (= (_ bv1 8) (_ bv2 8))))
(assert (not (= (_ bv1 8) x05)))
(assert (not (= (_ bv1 8) x06)))
(assert (not (= (_ bv1 8) x07)))
(assert (not (= (_ bv1 8) (_ bv3 8))))
(assert (not (= (_ bv2 8) x05)))
(assert (not (= (_ bv2 8) x06)))
(assert (not (= (_ bv2 8) x07)))
(assert (not (= (_ bv2 8) (_ bv3 8))))
(assert (not (= x05 x06)))
(assert (not (= x05 x07)))
(assert (not (= x05 (_ bv3 8))))
(assert (not (= x06 x07)))
(assert (not (= x06 (_ bv3 8))))
(assert (not (= x07 (_ bv3 8))))
(assert (not (= x10 (_ bv6 8))))
(assert (not (= x10 (_ bv8 8))))
(assert (not (= x10 x13)))
(assert (not (= x10 (_ bv5 8))))
(assert (not (= x10 x15)))
(assert (not (= x10 x16)))
(assert (not (= x10 (_ bv4 8))))
(assert (not (= x10 x18)))
(assert (not (= (_ bv6 8) (_ bv8 8))))
(assert (not (= (_ bv6 8) x13)))
(assert (not (= (_ bv6 8) (_ bv5 8))))
(assert (not (= (_ bv6 8) x15)))
(assert (not (= (_ bv6 8) x16)))
(assert (not (= (_ bv6 8) (_ bv4 8))))
(assert (not (= (_ bv6 8) x18)))
(assert (not (= (_ bv8 8) x13)))
(assert (not (= (_ bv8 8) (_ bv5 8))))
(assert (not (= (_ bv8 8) x15)))
(assert (not (= (_ bv8 8) x16)))
(assert (not (= (_ bv8 8) (_ bv4 8))))
(assert (not (= (_ bv8 8) x18)))
(assert (not (= x13 (_ bv5 8))))
(assert (not (= x13 x15)))
(assert (not (= x13 x16)))
(assert (not (= x13 (_ bv4 8))))
(assert (not (= x13 x18)))
(assert (not (= (_ bv5 8) x15)))
(assert (not (= (_ bv5 8) x16)))
(assert (not (= (_ bv5 8) (_ bv4 8))))
(assert (not (= (_ bv5 8) x18)))
(assert (not (= x15 x16)))
(assert (not (= x15 (_ bv4 8))))
(assert (not (= x15 x18)))
(assert (not (= x16 (_ bv4 8))))
(assert (not (= x16 x18)))
(assert (not (= (_ bv4 8) x18)))
(assert (not (= (_ bv1 8) x21)))
(assert (not (= (_ bv1 8) (_ bv9 8))))
(assert (not (= (_ bv1 8) x23)))
(assert (not (= (_ bv1 8) (_ bv4 8))))
(assert (not (= (_ bv1 8) x25)))
(assert (not (= (_ bv1 8) (_ bv8 8))))
(assert (not (= (_ bv1 8) x27)))
(assert (not (= (_ bv1 8) (_ bv7 8))))
(assert (not (= x21 (_ bv9 8))))
(assert (not (= x21 x23)))
(assert (not (= x21 (_ bv4 8))))
(assert (not (= x21 x25)))
(assert (not (= x21 (_ bv8 8))))
(assert (not (= x21 x27)))
(assert (not (= x21 (_ bv7 8))))
(assert (not (= (_ bv9 8) x23)))
(assert (not (= (_ bv9 8) (_ bv4 8))))
(assert (not (= (_ bv9 8) x25)))
(assert (not (= (_ bv9 8) (_ bv8 8))))
(assert (not (= (_ bv9 8) x27)))
(assert (not (= (_ bv9 8) (_ bv7 8))))
(assert (not (= x23 (_ bv4 8))))
(assert (not (= x23 x25)))
(assert (not (= x23 (_ bv8 8))))
(assert (not (= x23 x27)))
(assert (not (= x23 (_ bv7 8))))
(assert (not (= (_ bv4 8) x25)))
(assert (not (= (_ bv4 8) (_ bv8 8))))
(assert (not (= (_ bv4 8) x27)))
(assert (not (= (_ bv4 8) (_ bv7 8))))
(assert (not (= x25 (_ bv8 8))))
(assert (not (= x25 x27)))
(assert (not (= x25 (_ bv7 8))))
(assert (not (= (_ bv8 8) x27)))
(assert (not (= (_ bv8 8) (_ bv7 8))))
(assert (not (= x27 (_ bv7 8))))
(assert (not (= (_ bv8 8) x31)))
(assert (not (= (_ bv8 8) (_ bv3 8))))
(assert (not (= (_ bv8 8) (_ bv7 8))))
(assert (not (= (_ bv8 8) x34)))
(assert (not (= (_ bv8 8) x35)))
(assert (not (= (_ bv8 8) x36)))
(assert (not (= (_ bv8 8) x37)))
(assert (not (= (_ bv8 8) (_ bv2 8))))
(assert (not (= x31 (_ bv3 8))))
(assert (not (= x31 (_ bv7 8))))
(assert (not (= x31 x34)))
(assert (not (= x31 x35)))
(assert (not (= x31 x36)))
(assert (not (= x31 x37)))
(assert (not (= x31 (_ bv2 8))))
(assert (not (= (_ bv3 8) (_ bv7 8))))
(assert (not (= (_ bv3 8) x34)))
(assert (not (= (_ bv3 8) x35)))
(assert (not (= (_ bv3 8) x36)))
(assert (not (= (_ bv3 8) x37)))
(assert (not (= (_ bv3 8) (_ bv2 8))))
(assert (not (= (_ bv7 8) x34)))
(assert (not (= (_ bv7 8) x35)))
(assert (not (= (_ bv7 8) x36)))
(assert (not (= (_ bv7 8) x37)))
(assert (not (= (_ bv7 8) (_ bv2 8))))
(assert (not (= x34 x35)))
(assert (not (= x34 x36)))
(assert (not (= x34 x37)))
(assert (not (= x34 (_ bv2 8))))
(assert (not (= x35 x36)))
(assert (not (= x35 x37)))
(assert (not (= x35 (_ bv2 8))))
(assert (not (= x36 x37)))
(assert (not (= x36 (_ bv2 8))))
(assert (not (= x37 (_ bv2 8))))
(assert (not (= x40 (_ bv1 8))))
(assert (not (= x40 x42)))
(assert (not (= x40 x43)))
(assert (not (= x40 x44)))
(assert (not (= x40 x45)))
(assert (not (= x40 (_ bv6 8))))
(assert (not (= x40 x47)))
(assert (not (= x40 x48)))
(assert (not (= (_ bv1 8) x42)))
(assert (not (= (_ bv1 8) x43)))
(assert (not (= (_ bv1 8) x44)))
(assert (not (= (_ bv1 8) x45)))
(assert (not (= (_ bv1 8) (_ bv6 8))))
(assert (not (= (_ bv1 8) x47)))
(assert (not (= (_ bv1 8) x48)))
(assert (not (= x42 x43)))
(assert (not (= x42 x44)))
(assert (not (= x42 x45)))
(assert (not (= x42 (_ bv6 8))))
(assert (not (= x42 x47)))
(assert (not (= x42 x48)))
(assert (not (= x43 x44)))
(assert (not (= x43 x45)))
(assert (not (= x43 (_ bv6 8))))
(assert (not (= x43 x47)))
(assert (not (= x43 x48)))
(assert (not (= x44 x45)))
(assert (not (= x44 (_ bv6 8))))
(assert (not (= x44 x47)))
(assert (not (= x44 x48)))
(assert (not (= x45 (_ bv6 8))))
(assert (not (= x45 x47)))
(assert (not (= x45 x48)))
(assert (not (= (_ bv6 8) x47)))
(assert (not (= (_ bv6 8) x48)))
(assert (not (= x47 x48)))
(assert (not (= (_ bv7 8) x51)))
(assert (not (= (_ bv7 8) x52)))
(assert (not (= (_ bv7 8) (_ bv2 8))))
(assert (not (= (_ bv7 8) (_ bv1 8))))
(assert (not (= (_ bv7 8) (_ bv9 8))))
(assert (not (= (_ bv7 8) (_ bv5 8))))
(assert (not (= (_ bv7 8) x57)))
(assert (not (= (_ bv7 8) x58)))
(assert (not (= x51 x52)))
(assert (not (= x51 (_ bv2 8))))
(assert (not (= x51 (_ bv1 8))))
(assert (not (= x51 (_ bv9 8))))
(assert (not (= x51 (_ bv5 8))))
(assert (not (= x51 x57)))
(assert (not (= x51 x58)))
(assert (not (= x52 (_ bv2 8))))
(assert (not (= x52 (_ bv1 8))))
(assert (not (= x52 (_ bv9 8))))
(assert (not (= x52 (_ bv5 8))))
(assert (not (= x52 x57)))
(assert (not (= x52 x58)))
(assert (not (= (_ bv2 8) (_ bv1 8))))
(assert (not (= (_ bv2 8) (_ bv9 8))))
(assert (not (= (_ bv2 8) (_ bv5 8))))
(assert (not (= (_ bv2 8) x57)))
(assert (not (= (_ bv2 8) x58)))
(assert (not (= (_ bv1 8) (_ bv9 8))))
(assert (not (= (_ bv1 8) (_ bv5 8))))
(assert (not (= (_ bv1 8) x57)))
(assert (not (= (_ bv1 8) x58)))
(assert (not (= (_ bv9 8) (_ bv5 8))))
(assert (not (= (_ bv9 8) x57)))
(assert (not (= (_ bv9 8) x58)))
(assert (not (= (_ bv5 8) x57)))
(assert (not (= (_ bv5 8) x58)))
(assert (not (= x57 x58)))
(assert (not (= (_ bv5 8) x61)))
(assert (not (= (_ bv5 8) (_ bv4 8))))
(assert (not (= (_ bv5 8) x63)))
(assert (not (= (_ bv5 8) x64)))
(assert (not (= (_ bv5 8) x65)))
(assert (not (= (_ bv5 8) (_ bv1 8))))
(assert (not (= (_ bv5 8) (_ bv8 8))))
(assert (not (= (_ bv5 8) x68)))
(assert (not (= x61 (_ bv4 8))))
(assert (not (= x61 x63)))
(assert (not (= x61 x64)))
(assert (not (= x61 x65)))
(assert (not (= x61 (_ bv1 8))))
(assert (not (= x61 (_ bv8 8))))
(assert (not (= x61 x68)))
(assert (not (= (_ bv4 8) x63)))
(assert (not (= (_ bv4 8) x64)))
(assert (not (= (_ bv4 8) x65)))
(assert (not (= (_ bv4 8) (_ bv1 8))))
(assert (not (= (_ bv4 8) (_ bv8 8))))
(assert (not (= (_ bv4 8) x68)))
(assert (not (= x63 x64)))
(assert (not (= x63 x65)))
(assert (not (= x63 (_ bv1 8))))
(assert (not (= x63 (_ bv8 8))))
(assert (not (= x63 x68)))
(assert (not (= x64 x65)))
(assert (not (= x64 (_ bv1 8))))
(assert (not (= x64 (_ bv8 8))))
(assert (not (= x64 x68)))
(assert (not (= x65 (_ bv1 8))))
(assert (not (= x65 (_ bv8 8))))
(assert (not (= x65 x68)))
(assert (not (= (_ bv1 8) (_ bv8 8))))
(assert (not (= (_ bv1 8) x68)))
(assert (not (= (_ bv8 8) x68)))
(assert (not (= x70 x71)))
(assert (not (= x70 x72)))
(assert (not (= x70 (_ bv4 8))))
(assert (not (= x70 (_ bv8 8))))
(assert (not (= x70 x75)))
(assert (not (= x70 x76)))
(assert (not (= x70 (_ bv9 8))))
(assert (not (= x70 x78)))
(assert (not (= x71 x72)))
(assert (not (= x71 (_ bv4 8))))
(assert (not (= x71 (_ bv8 8))))
(assert (not (= x71 x75)))
(assert (not (= x71 x76)))
(assert (not (= x71 (_ bv9 8))))
(assert (not (= x71 x78)))
(assert (not (= x72 (_ bv4 8))))
(assert (not (= x72 (_ bv8 8))))
(assert (not (= x72 x75)))
(assert (not (= x72 x76)))
(assert (not (= x72 (_ bv9 8))))
(assert (not (= x72 x78)))
(assert (not (= (_ bv4 8) (_ bv8 8))))
(assert (not (= (_ bv4 8) x75)))
(assert (not (= (_ bv4 8) x76)))
(assert (not (= (_ bv4 8) (_ bv9 8))))
(assert (not (= (_ bv4 8) x78)))
(assert (not (= (_ bv8 8) x75)))
(assert (not (= (_ bv8 8) x76)))
(assert (not (= (_ bv8 8) (_ bv9 8))))
(assert (not (= (_ bv8 8) x78)))
(assert (not (= x75 x76)))
(assert (not (= x75 (_ bv9 8))))
(assert (not (= x75 x78)))
(assert (not (= x76 (_ bv9 8))))
(assert (not (= x76 x78)))
(assert (not (= (_ bv9 8) x78)))
(assert (not (= x80 x81)))
(assert (not (= x80 x82)))
(assert (not (= x80 (_ bv5 8))))
(assert (not (= x80 (_ bv7 8))))
(assert (not (= x80 (_ bv6 8))))
(assert (not (= x80 x86)))
(assert (not (= x80 x87)))
(assert (not (= x80 (_ bv4 8))))
(assert (not (= x81 x82)))
(assert (not (= x81 (_ bv5 8))))
(assert (not (= x81 (_ bv7 8))))
(assert (not (= x81 (_ bv6 8))))
(assert (not (= x81 x86)))
(assert (not (= x81 x87)))
(assert (not (= x81 (_ bv4 8))))
(assert (not (= x82 (_ bv5 8))))
(assert (not (= x82 (_ bv7 8))))
(assert (not (= x82 (_ bv6 8))))
(assert (not (= x82 x86)))
(assert (not (= x82 x87)))
(assert (not (= x82 (_ bv4 8))))
(assert (not (= (_ bv5 8) (_ bv7 8))))
(assert (not (= (_ bv5 8) (_ bv6 8))))
(assert (not (= (_ bv5 8) x86)))
(assert (not (= (_ bv5 8) x87)))
(assert (not (= (_ bv5 8) (_ bv4 8))))
(assert (not (= (_ bv7 8) (_ bv6 8))))
(assert (not (= (_ bv7 8) x86)))
(assert (not (= (_ bv7 8) x87)))
(assert (not (= (_ bv7 8) (_ bv4 8))))
(assert (not (= (_ bv6 8) x86)))
(assert (not (= (_ bv6 8) x87)))
(assert (not (= (_ bv6 8) (_ bv4 8))))
(assert (not (= x86 x87)))
(assert (not (= x86 (_ bv4 8))))
(assert (not (= x87 (_ bv4 8))))
(assert (not (= x00 x10)))
(assert (not (= x00 (_ bv1 8))))
(assert (not (= x00 (_ bv8 8))))
(assert (not (= x00 x40)))
(assert (not (= x00 (_ bv7 8))))
(assert (not (= x00 (_ bv5 8))))
(assert (not (= x00 x70)))
(assert (not (= x00 x80)))
(assert (not (= x10 (_ bv1 8))))
(assert (not (= x10 (_ bv8 8))))
(assert (not (= x10 x40)))
(assert (not (= x10 (_ bv7 8))))
(assert (not (= x10 (_ bv5 8))))
(assert (not (= x10 x70)))
(assert (not (= x10 x80)))
(assert (not (= (_ bv1 8) (_ bv8 8))))
(assert (not (= (_ bv1 8) x40)))
(assert (not (= (_ bv1 8) (_ bv7 8))))
(assert (not (= (_ bv1 8) (_ bv5 8))))
(assert (not (= (_ bv1 8) x70)))
(assert (not (= (_ bv1 8) x80)))
(assert (not (= (_ bv8 8) x40)))
(assert (not (= (_ bv8 8) (_ bv7 8))))
(assert (not (= (_ bv8 8) (_ bv5 8))))
(assert (not (= (_ bv8 8) x70)))
(assert (not (= (_ bv8 8) x80)))
(assert (not (= x40 (_ bv7 8))))
(assert (not (= x40 (_ bv5 8))))
(assert (not (= x40 x70)))
(assert (not (= x40 x80)))
(assert (not (= (_ bv7 8) (_ bv5 8))))
(assert (not (= (_ bv7 8) x70)))
(assert (not (= (_ bv7 8) x80)))
(assert (not (= (_ bv5 8) x70)))
(assert (not (= (_ bv5 8) x80)))
(assert (not (= x70 x80)))
(assert (not (= (_ bv5 8) (_ bv6 8))))
(assert (not (= (_ bv5 8) x21)))
(assert (not (= (_ bv5 8) x31)))
(assert (not (= (_ bv5 8) (_ bv1 8))))
(assert (not (= (_ bv5 8) x51)))
(assert (not (= (_ bv5 8) x61)))
(assert (not (= (_ bv5 8) x71)))
(assert (not (= (_ bv5 8) x81)))
(assert (not (= (_ bv6 8) x21)))
(assert (not (= (_ bv6 8) x31)))
(assert (not (= (_ bv6 8) (_ bv1 8))))
(assert (not (= (_ bv6 8) x51)))
(assert (not (= (_ bv6 8) x61)))
(assert (not (= (_ bv6 8) x71)))
(assert (not (= (_ bv6 8) x81)))
(assert (not (= x21 x31)))
(assert (not (= x21 (_ bv1 8))))
(assert (not (= x21 x51)))
(assert (not (= x21 x61)))
(assert (not (= x21 x71)))
(assert (not (= x21 x81)))
(assert (not (= x31 (_ bv1 8))))
(assert (not (= x31 x51)))
(assert (not (= x31 x61)))
(assert (not (= x31 x71)))
(assert (not (= x31 x81)))
(assert (not (= (_ bv1 8) x51)))
(assert (not (= (_ bv1 8) x61)))
(assert (not (= (_ bv1 8) x71)))
(assert (not (= (_ bv1 8) x81)))
(assert (not (= x51 x61)))
(assert (not (= x51 x71)))
(assert (not (= x51 x81)))
(assert (not (= x61 x71)))
(assert (not (= x61 x81)))
(assert (not (= x71 x81)))
(assert (not (= x02 (_ bv8 8))))
(assert (not (= x02 (_ bv9 8))))
(assert (not (= x02 (_ bv3 8))))
(assert (not (= x02 x42)))
(assert (not (= x02 x52)))
(assert (not (= x02 (_ bv4 8))))
(assert (not (= x02 x72)))
(assert (not (= x02 x82)))
(assert (not (= (_ bv8 8) (_ bv9 8))))
(assert (not (= (_ bv8 8) (_ bv3 8))))
(assert (not (= (_ bv8 8) x42)))
(assert (not (= (_ bv8 8) x52)))
(assert (not (= (_ bv8 8) (_ bv4 8))))
(assert (not (= (_ bv8 8) x72)))
(assert (not (= (_ bv8 8) x82)))
(assert (not (= (_ bv9 8) (_ bv3 8))))
(assert (not (= (_ bv9 8) x42)))
(assert (not (= (_ bv9 8) x52)))
(assert (not (= (_ bv9 8) (_ bv4 8))))
(assert (not (= (_ bv9 8) x72)))
(assert (not (= (_ bv9 8) x82)))
(assert (not (= (_ bv3 8) x42)))
(assert (not (= (_ bv3 8) x52)))
(assert (not (= (_ bv3 8) (_ bv4 8))))
(assert (not (= (_ bv3 8) x72)))
(assert (not (= (_ bv3 8) x82)))
(assert (not (= x42 x52)))
(assert (not (= x42 (_ bv4 8))))
(assert (not (= x42 x72)))
(assert (not (= x42 x82)))
(assert (not (= x52 (_ bv4 8))))
(assert (not (= x52 x72)))
(assert (not (= x52 x82)))
(assert (not (= (_ bv4 8) x72)))
(assert (not (= (_ bv4 8) x82)))
(assert (not (= x72 x82)))
(assert (not (= (_ bv1 8) x13)))
(assert (not (= (_ bv1 8) x23)))
(assert (not (= (_ bv1 8) (_ bv7 8))))
(assert (not (= (_ bv1 8) x43)))
(assert (not (= (_ bv1 8) (_ bv2 8))))
(assert (not (= (_ bv1 8) x63)))
(assert (not (= (_ bv1 8) (_ bv4 8))))
(assert (not (= (_ bv1 8) (_ bv5 8))))
(assert (not (= x13 x23)))
(assert (not (= x13 (_ bv7 8))))
(assert (not (= x13 x43)))
(assert (not (= x13 (_ bv2 8))))
(assert (not (= x13 x63)))
(assert (not (= x13 (_ bv4 8))))
(assert (not (= x13 (_ bv5 8))))
(assert (not (= x23 (_ bv7 8))))
(assert (not (= x23 x43)))
(assert (not (= x23 (_ bv2 8))))
(assert (not (= x23 x63)))
(assert (not (= x23 (_ bv4 8))))
(assert (not (= x23 (_ bv5 8))))
(assert (not (= (_ bv7 8) x43)))
(assert (not (= (_ bv7 8) (_ bv2 8))))
(assert (not (= (_ bv7 8) x63)))
(assert (not (= (_ bv7 8) (_ bv4 8))))
(assert (not (= (_ bv7 8) (_ bv5 8))))
(assert (not (= x43 (_ bv2 8))))
(assert (not (= x43 x63)))
(assert (not (= x43 (_ bv4 8))))
(assert (not (= x43 (_ bv5 8))))
(assert (not (= (_ bv2 8) x63)))
(assert (not (= (_ bv2 8) (_ bv4 8))))
(assert (not (= (_ bv2 8) (_ bv5 8))))
(assert (not (= x63 (_ bv4 8))))
(assert (not (= x63 (_ bv5 8))))
(assert (not (= (_ bv4 8) (_ bv5 8))))
(assert (not (= (_ bv2 8) (_ bv5 8))))
(assert (not (= (_ bv2 8) (_ bv4 8))))
(assert (not (= (_ bv2 8) x34)))
(assert (not (= (_ bv2 8) x44)))
(assert (not (= (_ bv2 8) (_ bv1 8))))
(assert (not (= (_ bv2 8) x64)))
(assert (not (= (_ bv2 8) (_ bv8 8))))
(assert (not (= (_ bv2 8) (_ bv7 8))))
(assert (not (= (_ bv5 8) (_ bv4 8))))
(assert (not (= (_ bv5 8) x34)))
(assert (not (= (_ bv5 8) x44)))
(assert (not (= (_ bv5 8) (_ bv1 8))))
(assert (not (= (_ bv5 8) x64)))
(assert (not (= (_ bv5 8) (_ bv8 8))))
(assert (not (= (_ bv5 8) (_ bv7 8))))
(assert (not (= (_ bv4 8) x34)))
(assert (not (= (_ bv4 8) x44)))
(assert (not (= (_ bv4 8) (_ bv1 8))))
(assert (not (= (_ bv4 8) x64)))
(assert (not (= (_ bv4 8) (_ bv8 8))))
(assert (not (= (_ bv4 8) (_ bv7 8))))
(assert (not (= x34 x44)))
(assert (not (= x34 (_ bv1 8))))
(assert (not (= x34 x64)))
(assert (not (= x34 (_ bv8 8))))
(assert (not (= x34 (_ bv7 8))))
(assert (not (= x44 (_ bv1 8))))
(assert (not (= x44 x64)))
(assert (not (= x44 (_ bv8 8))))
(assert (not (= x44 (_ bv7 8))))
(assert (not (= (_ bv1 8) x64)))
(assert (not (= (_ bv1 8) (_ bv8 8))))
(assert (not (= (_ bv1 8) (_ bv7 8))))
(assert (not (= x64 (_ bv8 8))))
(assert (not (= x64 (_ bv7 8))))
(assert (not (= (_ bv8 8) (_ bv7 8))))
(assert (not (= x05 x15)))
(assert (not (= x05 x25)))
(assert (not (= x05 x35)))
(assert (not (= x05 x45)))
(assert (not (= x05 (_ bv9 8))))
(assert (not (= x05 x65)))
(assert (not (= x05 x75)))
(assert (not (= x05 (_ bv6 8))))
(assert (not (= x15 x25)))
(assert (not (= x15 x35)))
(assert (not (= x15 x45)))
(assert (not (= x15 (_ bv9 8))))
(assert (not (= x15 x65)))
(assert (not (= x15 x75)))
(assert (not (= x15 (_ bv6 8))))
(assert (not (= x25 x35)))
(assert (not (= x25 x45)))
(assert (not (= x25 (_ bv9 8))))
(assert (not (= x25 x65)))
(assert (not (= x25 x75)))
(assert (not (= x25 (_ bv6 8))))
(assert (not (= x35 x45)))
(assert (not (= x35 (_ bv9 8))))
(assert (not (= x35 x65)))
(assert (not (= x35 x75)))
(assert (not (= x35 (_ bv6 8))))
(assert (not (= x45 (_ bv9 8))))
(assert (not (= x45 x65)))
(assert (not (= x45 x75)))
(assert (not (= x45 (_ bv6 8))))
(assert (not (= (_ bv9 8) x65)))
(assert (not (= (_ bv9 8) x75)))
(assert (not (= (_ bv9 8) (_ bv6 8))))
(assert (not (= x65 x75)))
(assert (not (= x65 (_ bv6 8))))
(assert (not (= x75 (_ bv6 8))))
(assert (not (= x06 x16)))
(assert (not (= x06 (_ bv8 8))))
(assert (not (= x06 x36)))
(assert (not (= x06 (_ bv6 8))))
(assert (not (= x06 (_ bv5 8))))
(assert (not (= x06 (_ bv1 8))))
(assert (not (= x06 x76)))
(assert (not (= x06 x86)))
(assert (not (= x16 (_ bv8 8))))
(assert (not (= x16 x36)))
(assert (not (= x16 (_ bv6 8))))
(assert (not (= x16 (_ bv5 8))))
(assert (not (= x16 (_ bv1 8))))
(assert (not (= x16 x76)))
(assert (not (= x16 x86)))
(assert (not (= (_ bv8 8) x36)))
(assert (not (= (_ bv8 8) (_ bv6 8))))
(assert (not (= (_ bv8 8) (_ bv5 8))))
(assert (not (= (_ bv8 8) (_ bv1 8))))
(assert (not (= (_ bv8 8) x76)))
(assert (not (= (_ bv8 8) x86)))
(assert (not (= x36 (_ bv6 8))))
(assert (not (= x36 (_ bv5 8))))
(assert (not (= x36 (_ bv1 8))))
(assert (not (= x36 x76)))
(assert (not (= x36 x86)))
(assert (not (= (_ bv6 8) (_ bv5 8))))
(assert (not (= (_ bv6 8) (_ bv1 8))))
(assert (not (= (_ bv6 8) x76)))
(assert (not (= (_ bv6 8) x86)))
(assert (not (= (_ bv5 8) (_ bv1 8))))
(assert (not (= (_ bv5 8) x76)))
(assert (not (= (_ bv5 8) x86)))
(assert (not (= (_ bv1 8) x76)))
(assert (not (= (_ bv1 8) x86)))
(assert (not (= x76 x86)))
(assert (not (= x07 (_ bv4 8))))
(assert (not (= x07 x27)))
(assert (not (= x07 x37)))
(assert (not (= x07 x47)))
(assert (not (= x07 x57)))
(assert (not (= x07 (_ bv8 8))))
(assert (not (= x07 (_ bv9 8))))
(assert (not (= x07 x87)))
(assert (not (= (_ bv4 8) x27)))
(assert (not (= (_ bv4 8) x37)))
(assert (not (= (_ bv4 8) x47)))
(assert (not (= (_ bv4 8) x57)))
(assert (not (= (_ bv4 8) (_ bv8 8))))
(assert (not (= (_ bv4 8) (_ bv9 8))))
(assert (not (= (_ bv4 8) x87)))
(assert (not (= x27 x37)))
(assert (not (= x27 x47)))
(assert (not (= x27 x57)))
(assert (not (= x27 (_ bv8 8))))
(assert (not (= x27 (_ bv9 8))))
(assert (not (= x27 x87)))
(assert (not (= x37 x47)))
(assert (not (= x37 x57)))
(assert (not (= x37 (_ bv8 8))))
(assert (not (= x37 (_ bv9 8))))
(assert (not (= x37 x87)))
(assert (not (= x47 x57)))
(assert (not (= x47 (_ bv8 8))))
(assert (not (= x47 (_ bv9 8))))
(assert (not (= x47 x87)))
(assert (not (= x57 (_ bv8 8))))
(assert (not (= x57 (_ bv9 8))))
(assert (not (= x57 x87)))
(assert (not (= (_ bv8 8) (_ bv9 8))))
(assert (not (= (_ bv8 8) x87)))
(assert (not (= (_ bv9 8) x87)))
(assert (not (= (_ bv3 8) x18)))
(assert (not (= (_ bv3 8) (_ bv7 8))))
(assert (not (= (_ bv3 8) (_ bv2 8))))
(assert (not (= (_ bv3 8) x48)))
(assert (not (= (_ bv3 8) x58)))
(assert (not (= (_ bv3 8) x68)))
(assert (not (= (_ bv3 8) x78)))
(assert (not (= (_ bv3 8) (_ bv4 8))))
(assert (not (= x18 (_ bv7 8))))
(assert (not (= x18 (_ bv2 8))))
(assert (not (= x18 x48)))
(assert (not (= x18 x58)))
(assert (not (= x18 x68)))
(assert (not (= x18 x78)))
(assert (not (= x18 (_ bv4 8))))
(assert (not (= (_ bv7 8) (_ bv2 8))))
(assert (not (= (_ bv7 8) x48)))
(assert (not (= (_ bv7 8) x58)))
(assert (not (= (_ bv7 8) x68)))
(assert (not (= (_ bv7 8) x78)))
(assert (not (= (_ bv7 8) (_ bv4 8))))
(assert (not (= (_ bv2 8) x48)))
(assert (not (= (_ bv2 8) x58)))
(assert (not (= (_ bv2 8) x68)))
(assert (not (= (_ bv2 8) x78)))
(assert (not (= (_ bv2 8) (_ bv4 8))))
(assert (not (= x48 x58)))
(assert (not (= x48 x68)))
(assert (not (= x48 x78)))
(assert (not (= x48 (_ bv4 8))))
(assert (not (= x58 x68)))
(assert (not (= x58 x78)))
(assert (not (= x58 (_ bv4 8))))
(assert (not (= x68 x78)))
(assert (not (= x68 (_ bv4 8))))
(assert (not (= x78 (_ bv4 8))))
(assert (not (= x00 (_ bv5 8))))
(assert (not (= x00 x02)))
(assert (not (= x00 x10)))
(assert (not (= x00 (_ bv6 8))))
(assert (not (= x00 (_ bv8 8))))
(assert (not (= x00 (_ bv1 8))))
(assert (not (= x00 x21)))
(assert (not (= x00 (_ bv9 8))))
(assert (not (= (_ bv5 8) x02)))
(assert (not (= (_ bv5 8) x10)))
(assert (not (= (_ bv5 8) (_ bv6 8))))
(assert (not (= (_ bv5 8) (_ bv8 8))))
(assert (not (= (_ bv5 8) (_ bv1 8))))
(assert (not (= (_ bv5 8) x21)))
(assert (not (= (_ bv5 8) (_ bv9 8))))
(assert (not (= x02 x10)))
(assert (not (= x02 (_ bv6 8))))
(assert (not (= x02 (_ bv8 8))))
(assert (not (= x02 (_ bv1 8))))
(assert (not (= x02 x21)))
(assert (not (= x02 (_ bv9 8))))
(assert (not (= x10 (_ bv6 8))))
(assert (not (= x10 (_ bv8 8))))
(assert (not (= x10 (_ bv1 8))))
(assert (not (= x10 x21)))
(assert (not (= x10 (_ bv9 8))))
(assert (not (= (_ bv6 8) (_ bv8 8))))
(assert (not (= (_ bv6 8) (_ bv1 8))))
(assert (not (= (_ bv6 8) x21)))
(assert (not (= (_ bv6 8) (_ bv9 8))))
(assert (not (= (_ bv8 8) (_ bv1 8))))
(assert (not (= (_ bv8 8) x21)))
(assert (not (= (_ bv8 8) (_ bv9 8))))
(assert (not (= (_ bv1 8) x21)))
(assert (not (= (_ bv1 8) (_ bv9 8))))
(assert (not (= x21 (_ bv9 8))))
(assert (not (= (_ bv1 8) (_ bv2 8))))
(assert (not (= (_ bv1 8) x05)))
(assert (not (= (_ bv1 8) x13)))
(assert (not (= (_ bv1 8) (_ bv5 8))))
(assert (not (= (_ bv1 8) x15)))
(assert (not (= (_ bv1 8) x23)))
(assert (not (= (_ bv1 8) (_ bv4 8))))
(assert (not (= (_ bv1 8) x25)))
(assert (not (= (_ bv2 8) x05)))
(assert (not (= (_ bv2 8) x13)))
(assert (not (= (_ bv2 8) (_ bv5 8))))
(assert (not (= (_ bv2 8) x15)))
(assert (not (= (_ bv2 8) x23)))
(assert (not (= (_ bv2 8) (_ bv4 8))))
(assert (not (= (_ bv2 8) x25)))
(assert (not (= x05 x13)))
(assert (not (= x05 (_ bv5 8))))
(assert (not (= x05 x15)))
(assert (not (= x05 x23)))
(assert (not (= x05 (_ bv4 8))))
(assert (not (= x05 x25)))
(assert (not (= x13 (_ bv5 8))))
(assert (not (= x13 x15)))
(assert (not (= x13 x23)))
(assert (not (= x13 (_ bv4 8))))
(assert (not (= x13 x25)))
(assert (not (= (_ bv5 8) x15)))
(assert (not (= (_ bv5 8) x23)))
(assert (not (= (_ bv5 8) (_ bv4 8))))
(assert (not (= (_ bv5 8) x25)))
(assert (not (= x15 x23)))
(assert (not (= x15 (_ bv4 8))))
(assert (not (= x15 x25)))
(assert (not (= x23 (_ bv4 8))))
(assert (not (= x23 x25)))
(assert (not (= (_ bv4 8) x25)))
(assert (not (= x06 x07)))
(assert (not (= x06 (_ bv3 8))))
(assert (not (= x06 x16)))
(assert (not (= x06 (_ bv4 8))))
(assert (not (= x06 x18)))
(assert (not (= x06 (_ bv8 8))))
(assert (not (= x06 x27)))
(assert (not (= x06 (_ bv7 8))))
(assert (not (= x07 (_ bv3 8))))
(assert (not (= x07 x16)))
(assert (not (= x07 (_ bv4 8))))
(assert (not (= x07 x18)))
(assert (not (= x07 (_ bv8 8))))
(assert (not (= x07 x27)))
(assert (not (= x07 (_ bv7 8))))
(assert (not (= (_ bv3 8) x16)))
(assert (not (= (_ bv3 8) (_ bv4 8))))
(assert (not (= (_ bv3 8) x18)))
(assert (not (= (_ bv3 8) (_ bv8 8))))
(assert (not (= (_ bv3 8) x27)))
(assert (not (= (_ bv3 8) (_ bv7 8))))
(assert (not (= x16 (_ bv4 8))))
(assert (not (= x16 x18)))
(assert (not (= x16 (_ bv8 8))))
(assert (not (= x16 x27)))
(assert (not (= x16 (_ bv7 8))))
(assert (not (= (_ bv4 8) x18)))
(assert (not (= (_ bv4 8) (_ bv8 8))))
(assert (not (= (_ bv4 8) x27)))
(assert (not (= (_ bv4 8) (_ bv7 8))))
(assert (not (= x18 (_ bv8 8))))
(assert (not (= x18 x27)))
(assert (not (= x18 (_ bv7 8))))
(assert (not (= (_ bv8 8) x27)))
(assert (not (= (_ bv8 8) (_ bv7 8))))
(assert (not (= x27 (_ bv7 8))))
(assert (not (= (_ bv8 8) x31)))
(assert (not (= (_ bv8 8) (_ bv3 8))))
(assert (not (= (_ bv8 8) x40)))
(assert (not (= (_ bv8 8) (_ bv1 8))))
(assert (not (= (_ bv8 8) x42)))
(assert (not (= (_ bv8 8) (_ bv7 8))))
(assert (not (= (_ bv8 8) x51)))
(assert (not (= (_ bv8 8) x52)))
(assert (not (= x31 (_ bv3 8))))
(assert (not (= x31 x40)))
(assert (not (= x31 (_ bv1 8))))
(assert (not (= x31 x42)))
(assert (not (= x31 (_ bv7 8))))
(assert (not (= x31 x51)))
(assert (not (= x31 x52)))
(assert (not (= (_ bv3 8) x40)))
(assert (not (= (_ bv3 8) (_ bv1 8))))
(assert (not (= (_ bv3 8) x42)))
(assert (not (= (_ bv3 8) (_ bv7 8))))
(assert (not (= (_ bv3 8) x51)))
(assert (not (= (_ bv3 8) x52)))
(assert (not (= x40 (_ bv1 8))))
(assert (not (= x40 x42)))
(assert (not (= x40 (_ bv7 8))))
(assert (not (= x40 x51)))
(assert (not (= x40 x52)))
(assert (not (= (_ bv1 8) x42)))
(assert (not (= (_ bv1 8) (_ bv7 8))))
(assert (not (= (_ bv1 8) x51)))
(assert (not (= (_ bv1 8) x52)))
(assert (not (= x42 (_ bv7 8))))
(assert (not (= x42 x51)))
(assert (not (= x42 x52)))
(assert (not (= (_ bv7 8) x51)))
(assert (not (= (_ bv7 8) x52)))
(assert (not (= x51 x52)))
(assert (not (= (_ bv7 8) x34)))
(assert (not (= (_ bv7 8) x35)))
(assert (not (= (_ bv7 8) x43)))
(assert (not (= (_ bv7 8) x44)))
(assert (not (= (_ bv7 8) x45)))
(assert (not (= (_ bv7 8) (_ bv2 8))))
(assert (not (= (_ bv7 8) (_ bv1 8))))
(assert (not (= (_ bv7 8) (_ bv9 8))))
(assert (not (= x34 x35)))
(assert (not (= x34 x43)))
(assert (not (= x34 x44)))
(assert (not (= x34 x45)))
(assert (not (= x34 (_ bv2 8))))
(assert (not (= x34 (_ bv1 8))))
(assert (not (= x34 (_ bv9 8))))
(assert (not (= x35 x43)))
(assert (not (= x35 x44)))
(assert (not (= x35 x45)))
(assert (not (= x35 (_ bv2 8))))
(assert (not (= x35 (_ bv1 8))))
(assert (not (= x35 (_ bv9 8))))
(assert (not (= x43 x44)))
(assert (not (= x43 x45)))
(assert (not (= x43 (_ bv2 8))))
(assert (not (= x43 (_ bv1 8))))
(assert (not (= x43 (_ bv9 8))))
(assert (not (= x44 x45)))
(assert (not (= x44 (_ bv2 8))))
(assert (not (= x44 (_ bv1 8))))
(assert (not (= x44 (_ bv9 8))))
(assert (not (= x45 (_ bv2 8))))
(assert (not (= x45 (_ bv1 8))))
(assert (not (= x45 (_ bv9 8))))
(assert (not (= (_ bv2 8) (_ bv1 8))))
(assert (not (= (_ bv2 8) (_ bv9 8))))
(assert (not (= (_ bv1 8) (_ bv9 8))))
(assert (not (= x36 x37)))
(assert (not (= x36 (_ bv2 8))))
(assert (not (= x36 (_ bv6 8))))
(assert (not (= x36 x47)))
(assert (not (= x36 x48)))
(assert (not (= x36 (_ bv5 8))))
(assert (not (= x36 x57)))
(assert (not (= x36 x58)))
(assert (not (= x37 (_ bv2 8))))
(assert (not (= x37 (_ bv6 8))))
(assert (not (= x37 x47)))
(assert (not (= x37 x48)))
(assert (not (= x37 (_ bv5 8))))
(assert (not (= x37 x57)))
(assert (not (= x37 x58)))
(assert (not (= (_ bv2 8) (_ bv6 8))))
(assert (not (= (_ bv2 8) x47)))
(assert (not (= (_ bv2 8) x48)))
(assert (not (= (_ bv2 8) (_ bv5 8))))
(assert (not (= (_ bv2 8) x57)))
(assert (not (= (_ bv2 8) x58)))
(assert (not (= (_ bv6 8) x47)))
(assert (not (= (_ bv6 8) x48)))
(assert (not (= (_ bv6 8) (_ bv5 8))))
(assert (not (= (_ bv6 8) x57)))
(assert (not (= (_ bv6 8) x58)))
(assert (not (= x47 x48)))
(assert (not (= x47 (_ bv5 8))))
(assert (not (= x47 x57)))
(assert (not (= x47 x58)))
(assert (not (= x48 (_ bv5 8))))
(assert (not (= x48 x57)))
(assert (not (= x48 x58)))
(assert (not (= (_ bv5 8) x57)))
(assert (not (= (_ bv5 8) x58)))
(assert (not (= x57 x58)))
(assert (not (= (_ bv5 8) x61)))
(assert (not (= (_ bv5 8) (_ bv4 8))))
(assert (not (= (_ bv5 8) x70)))
(assert (not (= (_ bv5 8) x71)))
(assert (not (= (_ bv5 8) x72)))
(assert (not (= (_ bv5 8) x80)))
(assert (not (= (_ bv5 8) x81)))
(assert (not (= (_ bv5 8) x82)))
(assert (not (= x61 (_ bv4 8))))
(assert (not (= x61 x70)))
(assert (not (= x61 x71)))
(assert (not (= x61 x72)))
(assert (not (= x61 x80)))
(assert (not (= x61 x81)))
(assert (not (= x61 x82)))
(assert (not (= (_ bv4 8) x70)))
(assert (not (= (_ bv4 8) x71)))
(assert (not (= (_ bv4 8) x72)))
(assert (not (= (_ bv4 8) x80)))
(assert (not (= (_ bv4 8) x81)))
(assert (not (= (_ bv4 8) x82)))
(assert (not (= x70 x71)))
(assert (not (= x70 x72)))
(assert (not (= x70 x80)))
(assert (not (= x70 x81)))
(assert (not (= x70 x82)))
(assert (not (= x71 x72)))
(assert (not (= x71 x80)))
(assert (not (= x71 x81)))
(assert (not (= x71 x82)))
(assert (not (= x72 x80)))
(assert (not (= x72 x81)))
(assert (not (= x72 x82)))
(assert (not (= x80 x81)))
(assert (not (= x80 x82)))
(assert (not (= x81 x82)))
(assert (not (= x63 x64)))
(assert (not (= x63 x65)))
(assert (not (= x63 (_ bv4 8))))
(assert (not (= x63 (_ bv8 8))))
(assert (not (= x63 x75)))
(assert (not (= x63 (_ bv5 8))))
(assert (not (= x63 (_ bv7 8))))
(assert (not (= x63 (_ bv6 8))))
(assert (not (= x64 x65)))
(assert (not (= x64 (_ bv4 8))))
(assert (not (= x64 (_ bv8 8))))
(assert (not (= x64 x75)))
(assert (not (= x64 (_ bv5 8))))
(assert (not (= x64 (_ bv7 8))))
(assert (not (= x64 (_ bv6 8))))
(assert (not (= x65 (_ bv4 8))))
(assert (not (= x65 (_ bv8 8))))
(assert (not (= x65 x75)))
(assert (not (= x65 (_ bv5 8))))
(assert (not (= x65 (_ bv7 8))))
(assert (not (= x65 (_ bv6 8))))
(assert (not (= (_ bv4 8) (_ bv8 8))))
(assert (not (= (_ bv4 8) x75)))
(assert (not (= (_ bv4 8) (_ bv5 8))))
(assert (not (= (_ bv4 8) (_ bv7 8))))
(assert (not (= (_ bv4 8) (_ bv6 8))))
(assert (not (= (_ bv8 8) x75)))
(assert (not (= (_ bv8 8) (_ bv5 8))))
(assert (not (= (_ bv8 8) (_ bv7 8))))
(assert (not (= (_ bv8 8) (_ bv6 8))))
(assert (not (= x75 (_ bv5 8))))
(assert (not (= x75 (_ bv7 8))))
(assert (not (= x75 (_ bv6 8))))
(assert (not (= (_ bv5 8) (_ bv7 8))))
(assert (not (= (_ bv5 8) (_ bv6 8))))
(assert (not (= (_ bv7 8) (_ bv6 8))))
(assert (not (= (_ bv1 8) (_ bv8 8))))
(assert (not (= (_ bv1 8) x68)))
(assert (not (= (_ bv1 8) x76)))
(assert (not (= (_ bv1 8) (_ bv9 8))))
(assert (not (= (_ bv1 8) x78)))
(assert (not (= (_ bv1 8) x86)))
(assert (not (= (_ bv1 8) x87)))
(assert (not (= (_ bv1 8) (_ bv4 8))))
(assert (not (= (_ bv8 8) x68)))
(assert (not (= (_ bv8 8) x76)))
(assert (not (= (_ bv8 8) (_ bv9 8))))
(assert (not (= (_ bv8 8) x78)))
(assert (not (= (_ bv8 8) x86)))
(assert (not (= (_ bv8 8) x87)))
(assert (not (= (_ bv8 8) (_ bv4 8))))
(assert (not (= x68 x76)))
(assert (not (= x68 (_ bv9 8))))
(assert (not (= x68 x78)))
(assert (not (= x68 x86)))
(assert (not (= x68 x87)))
(assert (not (= x68 (_ bv4 8))))
(assert (not (= x76 (_ bv9 8))))
(assert (not (= x76 x78)))
(assert (not (= x76 x86)))
(assert (not (= x76 x87)))
(assert (not (= x76 (_ bv4 8))))
(assert (not (= (_ bv9 8) x78)))
(assert (not (= (_ bv9 8) x86)))
(assert (not (= (_ bv9 8) x87)))
(assert (not (= (_ bv9 8) (_ bv4 8))))
(assert (not (= x78 x86)))
(assert (not (= x78 x87)))
(assert (not (= x78 (_ bv4 8))))
(assert (not (= x86 x87)))
(assert (not (= x86 (_ bv4 8))))
(assert (not (= x87 (_ bv4 8))))
(check-sat)
(exit)
